
List of user-set options:

                                    Name   Value                used
                           linear_solver = ma57                  yes
                  ma57_automatic_scaling = yes                   yes
                                max_iter = 2000                  yes
                             mu_strategy = adaptive              yes
                             output_file = DynamicOptimization_lMtildestateIPOPTinfo.txt  yes
                             print_level = 5                     yes
                      print_user_options = yes                   yes
                                     tol = 1e-006                yes
This is Ipopt version 3.11.0, running with linear solver ma57.

Number of nonzeros in equality constraint Jacobian...:    89811
Number of nonzeros in inequality constraint Jacobian.:       92
Number of nonzeros in Lagrangian Hessian.............:    39270

Reallocating memory for MA57: lfact (1621003)
Total number of variables............................:    19997
                     variables with only lower bounds:        0
                variables with lower and upper bounds:    19997
                     variables with only upper bounds:        0
Total number of equality constraints.................:    15121
Total number of inequality constraints...............:       47
        inequality constraints with only lower bounds:        0
   inequality constraints with lower and upper bounds:       47
        inequality constraints with only upper bounds:        0

iter    objective    inf_pr   inf_du lg(mu)  ||d||  lg(rg) alpha_du alpha_pr  ls
   0 9.9999900e-003 1.80e+004 1.60e-003   0.0 0.00e+000    -  0.00e+000 0.00e+000   0
   1 9.9990000e-005 1.73e+004 2.04e+000  -6.1 1.75e+000    -  4.35e-002 3.75e-002h  1
   2 2.7966208e-003 1.71e+004 1.03e+004  -0.3 6.17e+000    -  3.78e-003 1.13e-002f  4
   3 3.1210261e-002 1.71e+004 1.68e+006  -0.2 1.98e+002   0.0 3.25e-004 1.26e-003f  3
   4 4.8784164e-001 5.16e+006 1.10e+009  -0.2 2.29e+001    -  3.68e-003 2.26e-002f  2
   5 7.1654698e-001 5.08e+006 1.08e+009  -0.2 1.45e+001   1.3 7.65e-003 1.58e-002h  1
   6 7.1750245e-001 5.08e+006 1.08e+009  -0.2 5.03e+002   0.9 6.67e-005 2.10e-004F  1
   7 7.3142354e-001 5.07e+006 1.08e+009  -0.2 1.30e+001   1.3 6.81e-003 1.07e-003h  1
   8 7.6072022e-001 5.06e+006 1.08e+009  -0.2 1.11e+001   1.7 4.80e-002 2.63e-003h  1
   9 9.6044743e-001 4.98e+006 1.06e+009  -0.2 1.30e+001   1.2 7.79e-003 1.54e-002h  1
iter    objective    inf_pr   inf_du lg(mu)  ||d||  lg(rg) alpha_du alpha_pr  ls
  10 1.0058971e+000 4.96e+006 1.06e+009  -0.2 1.57e+001   1.7 3.32e-003 3.72e-003h  1
  11 1.0270170e+000 4.96e+006 1.06e+009  -0.2 1.96e+001   1.2 4.82e-003 1.51e-003h  1
  12 1.0783208e+000 4.94e+006 1.05e+009  -0.2 1.53e+001   1.6 2.35e-003 4.25e-003h  1
  13 1.3270341e+000 4.84e+006 1.03e+009  -0.2 1.68e+001   1.1 4.48e-003 2.01e-002f  1
  14 1.1308990e+000 4.77e+006 1.02e+009  -0.2 1.41e+001   1.6 3.91e-003 1.39e-002h  1
  15 1.1347543e+000 4.74e+006 1.01e+009  -0.2 4.39e+000   2.0 6.49e-003 5.43e-003h  1
  16 1.1381234e+000 4.72e+006 1.01e+009  -0.2 5.07e+000   2.4 9.64e-003 4.69e-003h  1
  17 1.1390154e+000 4.72e+006 1.00e+009  -0.2 1.00e+001   1.9 3.12e-003 1.47e-003h  1
  18 1.1457343e+000 4.67e+006 9.95e+008  -0.2 9.21e+000   2.4 8.94e-004 9.61e-003h  1
  19 1.1491533e+000 4.63e+006 9.87e+008  -0.2 5.55e+000   1.9 8.00e-003 7.66e-003h  1
iter    objective    inf_pr   inf_du lg(mu)  ||d||  lg(rg) alpha_du alpha_pr  ls
  20 1.1500969e+000 4.63e+006 9.86e+008  -0.2 5.69e+000   2.3 7.23e-003 1.50e-003h  1
  21 1.1512117e+000 4.61e+006 9.82e+008  -0.2 5.81e+000   1.8 4.76e-003 3.80e-003h  1
  22 1.1530981e+000 4.60e+006 9.79e+008  -0.2 5.06e+000   2.2 5.10e-003 3.17e-003h  1
  23 1.1579531e+000 4.56e+006 9.71e+008  -0.2 5.53e+000   2.7 2.95e-003 8.41e-003h  1
  24 1.1586040e+000 4.55e+006 9.70e+008  -0.2 6.75e+000   2.2 4.79e-003 1.30e-003h  1
  25 1.1628549e+000 4.52e+006 9.62e+008  -0.2 6.22e+000   2.6 1.42e-003 7.86e-003h  1
  26 1.1679374e+000 4.46e+006 9.50e+008  -0.2 4.97e+000   2.1 6.47e-003 1.28e-002h  1
  27 1.1715432e+000 4.42e+006 9.42e+008  -0.2 2.70e+000   2.6 4.81e-003 7.68e-003h  1
  28 1.1727080e+000 4.41e+006 9.40e+008  -0.2 1.94e+000   3.0 1.36e-002 2.60e-003h  1
  29 1.1753875e+000 4.39e+006 9.34e+008  -0.2 3.08e+000   3.4 4.09e-004 6.25e-003h  1
iter    objective    inf_pr   inf_du lg(mu)  ||d||  lg(rg) alpha_du alpha_pr  ls
  30 1.1764051e+000 4.37e+006 9.32e+008  -0.2 2.14e+000   3.9 3.64e-003 2.42e-003h  1
  31 1.1792397e+000 4.34e+006 9.25e+008  -0.2 2.82e+000   3.4 9.39e-004 7.49e-003h  1
  32 1.1793893e+000 4.34e+006 9.25e+008  -0.2 1.57e+000   3.8 1.33e-002 3.83e-004h  1
  33 1.1803545e+000 4.33e+006 9.22e+008  -0.2 3.61e+000   4.2 3.75e-005 2.41e-003h  1
  34 1.1816700e+000 4.31e+006 9.19e+008  -0.2 2.91e+000   3.7 5.27e-003 3.58e-003h  1
  35 1.1817698e+000 4.31e+006 9.19e+008  -0.2 4.36e+000   4.2 2.05e-003 2.60e-004h  1
  36 1.1865080e+000 4.25e+006 9.06e+008  -0.2 3.98e+000   3.7 7.95e-005 1.40e-002h  1
  37 1.1876008e+000 4.24e+006 9.03e+008  -0.2 1.65e+000   4.1 1.39e-002 3.13e-003h  1
  38 1.1873607e+000 4.23e+006 9.02e+008  -0.2 1.32e+001   3.6 1.51e-003 1.68e-003h  1
  39 1.1886680e+000 4.22e+006 8.98e+008  -0.2 1.66e+000   4.1 6.19e-003 3.85e-003h  1
iter    objective    inf_pr   inf_du lg(mu)  ||d||  lg(rg) alpha_du alpha_pr  ls
  40 1.1886905e+000 4.21e+006 8.97e+008  -0.2 8.73e+000   3.6 3.04e-003 9.27e-004h  1
  41 1.1935942e+000 4.15e+006 8.84e+008  -0.2 2.82e+000   4.0 5.00e-003 1.53e-002h  1
  42 1.1937301e+000 4.14e+006 8.83e+008  -0.2 3.59e+000   3.5 1.92e-003 1.04e-003h  1
  43 1.1953683e+000 4.12e+006 8.78e+008  -0.2 2.50e+000   4.0 9.97e-003 5.80e-003h  1
  44 1.1978421e+000 4.02e+006 8.56e+008  -0.2 3.65e+000   3.5 6.91e-004 2.56e-002h  1
  45 1.1984387e+000 4.01e+006 8.53e+008  -0.2 2.32e+000   3.9 1.41e-002 2.52e-003h  1
  46 1.1984850e+000 4.00e+006 8.53e+008  -0.2 2.22e+000   3.4 8.54e-004 3.97e-004h  1
  47 1.1984970e+000 4.00e+006 8.53e+008  -0.2 4.84e+000   3.9 6.71e-003 6.05e-005h  1
  48 1.1989364e+000 3.98e+006 8.47e+008  -0.2 5.10e+000   3.4 5.96e-004 6.80e-003h  1
  49 1.2006909e+000 3.93e+006 8.38e+008  -0.2 5.12e+000   3.8 2.50e-003 1.11e-002h  1
iter    objective    inf_pr   inf_du lg(mu)  ||d||  lg(rg) alpha_du alpha_pr  ls
  50 1.2004234e+000 3.92e+006 8.35e+008  -0.2 4.60e+000   3.3 1.89e-003 3.74e-003h  1
  51 1.2005886e+000 3.91e+006 8.33e+008  -0.2 2.26e+000   3.8 1.67e-002 1.88e-003h  1
  52 1.2020921e+000 3.87e+006 8.24e+008  -0.2 2.28e+000   4.2 3.24e-003 1.12e-002h  1
  53 1.2032129e+000 3.71e+006 7.90e+008  -0.2 1.63e+000   3.7 1.54e-003 4.26e-002h  1
  54 1.2043901e+000 3.63e+006 7.73e+008  -0.2 3.58e-001   4.1 5.28e-002 2.07e-002h  1
  55 1.2011726e+000 3.47e+006 7.39e+008  -0.2 8.21e-001   3.7 1.43e-002 4.57e-002h  1
  56 1.2017458e+000 3.40e+006 7.25e+008  -0.2 3.48e-001   4.1 2.46e-001 1.94e-002h  1
  57 1.1917604e+000 2.90e+006 6.18e+008  -0.2 3.30e-001   3.6 2.70e-002 1.60e-001h  1
  58 1.1945345e+000 2.58e+006 5.50e+008  -0.2 2.45e-001   4.0 5.72e-001 1.16e-001h  1
  59 1.1957293e+000 2.09e+006 4.46e+008  -0.2 2.18e-001   3.6 2.19e-001 2.09e-001h  1
iter    objective    inf_pr   inf_du lg(mu)  ||d||  lg(rg) alpha_du alpha_pr  ls
  60 1.1983287e+000 1.82e+006 3.88e+008  -0.2 1.11e+000   3.1 1.59e-001 1.40e-001h  1
  61 1.2346509e+000 1.01e+006 2.15e+008  -0.2 2.09e-001   3.5 5.94e-002 5.90e-001h  1
  62 1.3064471e+000 5.75e+005 1.22e+008  -0.2 1.28e-001   3.0 4.63e-001 5.62e-001h  1
  63 1.4917373e+000 2.11e+005 4.50e+007  -0.2 1.85e-001   2.6 5.41e-001 1.00e+000f  1
  64 1.5737951e+000 7.78e+004 1.66e+007  -0.2 9.17e-002   3.0 8.73e-001 1.00e+000h  1
  65 1.6054845e+000 2.86e+004 6.10e+006  -0.2 8.65e-002   3.4 9.48e-001 1.00e+000h  1
  66 1.6832107e+000 1.05e+004 2.24e+006  -0.2 1.08e-001   2.9 5.51e-001 1.00e+000f  1
  67 1.8690154e+000 3.87e+003 8.25e+005  -0.2 1.86e-001   2.5 8.59e-001 1.00e+000f  1
  68 2.2638767e+000 1.42e+003 3.04e+005  -0.2 3.95e-001   2.0 1.00e+000 1.00e+000f  1
  69 3.0414188e+000 5.23e+002 1.12e+005  -0.2 7.78e-001   1.5 8.45e-001 1.00e+000f  1
iter    objective    inf_pr   inf_du lg(mu)  ||d||  lg(rg) alpha_du alpha_pr  ls
  70 3.2331168e+000 1.92e+002 4.10e+004  -0.4 2.12e-001   1.9 1.00e+000 1.00e+000f  1
  71 5.1774955e+000 1.25e+002 2.67e+004   0.6 4.57e+000   1.4 1.00e+000 4.26e-001f  1
  72 5.2633218e+000 9.95e+001 2.13e+004  -5.4 1.20e+000    -  1.31e-001 2.28e-001h  1
  73 5.3026578e+000 8.51e+001 1.82e+004  -5.5 3.77e+000    -  2.82e-002 1.56e-001h  1
  74 5.3130462e+000 8.10e+001 1.73e+004  -5.5 7.53e-001    -  3.06e-001 4.95e-002h  1
  75 5.5419531e+000 6.01e+001 1.29e+004  -0.6 3.32e+000    -  3.22e-001 2.97e-001f  1
  76 6.4127898e+000 5.21e+001 1.11e+004   0.2 6.52e+000    -  3.18e-001 1.43e-001f  1
  77 7.4245790e+000 3.53e+001 7.62e+003  -0.2 2.64e+000    -  9.93e-001 3.83e-001f  1
  78 7.7741212e+000 1.71e+001 1.38e+004  -0.5 4.99e-001   1.0 1.00e+000 7.00e-001f  1
  79 8.9494535e+000 1.34e+001 1.31e+004   0.9 4.92e+000   1.4 1.00e+000 2.39e-001f  1
iter    objective    inf_pr   inf_du lg(mu)  ||d||  lg(rg) alpha_du alpha_pr  ls
  80 1.8275176e+001 1.08e+001 6.80e+003   1.4 4.70e+001    -  2.87e-001 1.98e-001f  1
  81 4.3134190e+001 7.68e+000 4.97e+004   1.0 3.29e+001    -  9.94e-001 7.57e-001f  1
  82 8.2760924e+001 9.94e+000 1.59e+004   1.0 6.57e+001    -  4.73e-001 6.03e-001f  1
  83 1.0984515e+002 8.95e-001 5.81e+003   0.6 2.71e+001    -  1.00e+000 1.00e+000f  1
  84 1.1659937e+002 1.65e-001 1.83e+003   0.3 6.75e+000    -  1.00e+000 1.00e+000f  1
  85 8.9838348e+001 1.74e+000 2.04e+002  -0.3 2.68e+001    -  1.00e+000 1.00e+000f  1
  86 2.3336609e+001 1.38e+001 1.31e+001  -1.1 6.65e+001    -  9.95e-001 1.00e+000f  1
  87 2.3336608e-001 1.14e+001 3.06e+000  -1.7 2.74e+001    -  9.95e-001 8.44e-001f  1
  88 5.2738380e-001 4.30e+000 1.81e+001  -2.6 2.94e-001   0.9 9.98e-001 1.00e+000h  1
  89 2.5367923e+000 1.31e+000 5.60e+000  -2.7 2.04e+000   0.4 1.00e+000 9.84e-001h  1
iter    objective    inf_pr   inf_du lg(mu)  ||d||  lg(rg) alpha_du alpha_pr  ls
  90 3.7498079e+000 4.83e-002 1.12e+000  -2.4 1.21e+000  -0.0 1.00e+000 1.00e+000h  1
  91 3.6663117e+000 4.56e-003 5.13e-002  -3.6 8.35e-002  -0.5 1.00e+000 1.00e+000h  1
  92 3.4137330e+000 2.17e-002 2.59e-002  -4.6 2.53e-001  -1.0 1.00e+000 1.00e+000h  1
  93 2.7927361e+000 1.34e-001 2.70e-002  -5.1 6.21e-001  -1.5 1.00e+000 1.00e+000h  1
  94 1.6649567e+000 6.62e-001 2.77e-002  -4.1 1.18e+000  -1.9 1.00e+000 9.54e-001h  1
  95 1.1423983e+000 7.90e-001 1.57e-002  -4.2 1.12e+000  -2.4 1.00e+000 4.68e-001h  1
  96 8.5703744e-001 5.33e-001 4.12e-003  -4.2 2.85e-001  -2.0 1.00e+000 1.00e+000h  1
  97 4.0691429e-001 1.02e+000 7.29e-003  -4.7 4.50e-001  -2.5 1.00e+000 1.00e+000h  1
  98 3.6426306e-001 5.70e+000 8.90e-003  -4.4 2.88e-001  -2.9 1.00e+000 1.00e+000h  1
  99 4.9247438e-001 1.32e+000 3.20e-003  -4.2 1.53e-001  -3.4 1.00e+000 1.00e+000h  1
iter    objective    inf_pr   inf_du lg(mu)  ||d||  lg(rg) alpha_du alpha_pr  ls
 100 3.1304876e-001 3.77e-001 5.84e-003  -5.1 1.79e-001  -3.0 9.96e-001 1.00e+000h  1
 101 3.2682503e-001 5.05e-001 1.16e-002  -4.6 1.67e-001  -3.5 1.00e+000 1.00e+000h  1
 102 2.6972842e-001 1.44e+000 4.16e-003  -5.1 1.88e-001  -4.0 9.94e-001 1.00e+000h  1
 103 2.4638932e-001 3.58e-001 4.36e-003  -5.5 9.03e-002  -3.5 1.00e+000 1.00e+000h  1
 104 2.8198921e-001 2.31e+000 3.62e-003  -4.9 3.10e-001  -4.0 1.00e+000 1.00e+000h  1
 105 2.7341013e-001 6.14e-001 1.32e-003  -5.0 5.12e-001  -4.5 1.00e+000 1.00e+000h  1
 106 2.4844472e-001 3.29e+000 2.19e-003  -5.4 3.24e-001    -  9.94e-001 1.00e+000h  1
 107 2.4602242e-001 1.05e+000 3.71e-004  -5.5 1.29e-001  -4.1 1.00e+000 1.00e+000h  1
 108 2.3772608e-001 2.11e+000 6.96e-004  -6.0 2.57e-001  -4.5 9.91e-001 1.00e+000h  1
 109 2.3533046e-001 6.71e-001 3.94e-004  -6.4 1.34e-001  -4.1 1.00e+000 1.00e+000h  1
iter    objective    inf_pr   inf_du lg(mu)  ||d||  lg(rg) alpha_du alpha_pr  ls
 110 2.3457297e-001 2.63e+000 7.38e-004 -11.0 1.59e+000  -4.6 4.25e-001 5.03e-001h  1
 111 2.3438473e-001 2.41e-001 1.74e-003  -6.9 2.17e-001  -4.2 1.00e+000 1.00e+000h  1
 112 2.3397103e-001 3.25e-001 6.53e-004  -7.5 7.28e-002  -3.7 1.00e+000 1.00e+000h  1
 113 2.3412484e-001 4.88e-002 7.39e-004  -7.1 9.75e-002  -4.2 1.00e+000 1.00e+000h  1
 114 2.3409080e-001 1.06e-001 3.14e-003  -7.2 2.86e-001  -4.7 5.24e-001 4.88e-001h  1
 115 2.3406124e-001 1.34e-002 7.34e-004  -7.2 5.10e-002  -4.3 1.00e+000 1.00e+000h  1
 116 2.3399369e-001 1.89e-001 2.03e-004  -7.4 1.58e-001  -4.7 1.00e+000 1.00e+000h  1
 117 2.3396145e-001 6.89e-003 7.96e-005  -7.5 6.82e-002  -4.3 1.00e+000 1.00e+000h  1
 118 2.3405383e-001 1.36e-001 2.78e-003  -7.2 3.06e-001  -4.8 1.00e+000 1.00e+000h  1
 119 2.3404264e-001 2.59e-001 1.90e-003  -7.3 6.29e+000  -5.3 1.07e-001 4.42e-002h  1
iter    objective    inf_pr   inf_du lg(mu)  ||d||  lg(rg) alpha_du alpha_pr  ls
 120 2.3399836e-001 5.78e-002 4.89e-004  -7.3 3.61e-002  -3.9 7.32e-001 1.00e+000h  1
 121 2.3399575e-001 4.44e-002 6.21e-005  -7.3 7.81e-002  -4.4 1.00e+000 1.00e+000h  1
 122 2.3399463e-001 1.73e-002 1.09e-005  -7.3 6.90e-002  -4.9 1.00e+000 1.00e+000h  1
 123 2.3397671e-001 5.37e-004 5.19e-006  -7.4 1.09e-001  -5.4 1.00e+000 1.00e+000h  1
 124 2.3386031e-001 2.84e-002 2.56e-004  -7.9 6.81e-002  -5.8 9.99e-001 1.00e+000h  1
 125 2.3392414e-001 1.98e-003 1.11e-004  -7.5 8.37e-003  -4.5 1.00e+000 1.00e+000h  1
 126 2.3384806e-001 1.40e-003 4.10e-005  -8.0 1.01e-002  -5.0 1.00e+000 1.00e+000h  1
 127 2.3382745e-001 1.61e-003 3.48e-005  -8.5 1.72e-002  -5.5 1.00e+000 1.00e+000h  1
 128 2.3381742e-001 7.41e-004 3.74e-006  -9.1 3.99e-002  -5.9 1.00e+000 1.00e+000h  1
 129 2.3381586e-001 2.32e-004 1.15e-006  -9.5 8.56e-002  -6.4 1.00e+000 1.00e+000h  1
iter    objective    inf_pr   inf_du lg(mu)  ||d||  lg(rg) alpha_du alpha_pr  ls
 130 2.3381504e-001 1.20e-005 2.54e-006 -10.1 1.53e-001  -6.9 1.00e+000 1.00e+000h  1
 131 2.3381586e-001 7.63e-006 1.00e-005  -9.5 2.57e-001  -7.4 1.00e+000 1.00e+000h  1
 132 2.3381568e-001 4.36e-006 5.68e-004  -9.7 6.55e-002  -7.0 1.00e+000 4.31e-001h  1
 133 2.3381515e-001 9.50e-007 3.50e-005 -10.0 9.90e-002  -7.4 1.00e+000 1.00e+000h  1
 134 2.3381490e-001 2.42e-007 7.57e-006 -10.4 4.53e-002  -7.0 1.00e+000 1.00e+000h  1
 135 2.3381483e-001 4.15e-008 4.81e-005 -10.8 1.71e-001  -7.5 1.00e+000 1.00e+000h  1
Reallocating memory for MA57: lfact (1703508)
 136 2.3381480e-001 1.82e-008 2.29e-005 -11.0 8.77e-002  -8.0 1.00e+000 1.00e+000h  1
 137 2.3381480e-001 2.07e-008 2.23e-005 -11.0 1.14e-001  -8.4 1.00e+000 1.00e+000h  1
 138 2.3381480e-001 2.34e-008 4.87e-005 -11.0 3.98e-001  -8.9 3.98e-001 4.25e-001h  1
 139 2.3381480e-001 8.46e-009 7.99e-006 -11.0 1.04e-001  -8.5 1.00e+000 1.00e+000h  1
iter    objective    inf_pr   inf_du lg(mu)  ||d||  lg(rg) alpha_du alpha_pr  ls
 140 2.3381480e-001 3.00e-008 8.18e-004 -11.0 2.65e-001  -9.0 2.77e-001 9.35e-001h  1
 141 2.3381480e-001 2.38e-007 8.26e-004 -11.0 3.78e-001  -7.6 5.83e-002 4.98e-001h  1
 142 2.3381480e-001 1.92e-007 7.67e-004 -11.0 3.33e-002  -8.1 8.54e-002 1.63e-001f  1
 143 2.3381480e-001 1.42e-007 8.31e-004 -11.0 1.10e-001  -8.6 8.22e-001 2.63e-001f  2
 144 2.3381480e-001 1.41e-007 8.30e-004 -11.0 1.45e+001  -8.2 2.00e-003 1.19e-003h  2
 145 2.3381480e-001 1.41e-007 1.04e-003 -11.0 1.23e-002  -5.9 1.00e+000 3.64e-003h  2
 146 2.3381480e-001 1.36e-010 4.31e-010 -11.0 1.11e-003  -6.4 1.00e+000 1.00e+000h  1

Number of Iterations....: 146

                                   (scaled)                 (unscaled)
Objective...............:  2.3381479679282874e-001   2.3381479679282874e-001
Dual infeasibility......:  4.3104905482447347e-010   4.3104905482447347e-010
Constraint violation....:  1.3569294212562033e-010   1.3569294212562033e-010
Complementarity.........:  1.3247081197453190e-011   1.3247081197453190e-011
Overall NLP error.......:  4.3104905482447347e-010   4.3104905482447347e-010


Number of objective function evaluations             = 155
Number of objective gradient evaluations             = 147
Number of equality constraint evaluations            = 165
Number of inequality constraint evaluations          = 165
Number of equality constraint Jacobian evaluations   = 147
Number of inequality constraint Jacobian evaluations = 147
Number of Lagrangian Hessian evaluations             = 146
Total CPU secs in IPOPT (w/o function evaluations)   =     62.866
Total CPU secs in NLP function evaluations           =    140.888

EXIT: Optimal Solution Found.
